/*********************************************
 * OPL 12.6.0.0 Data
 * Author: nico3375
 * Creation Date: 26 juil. 2017 at 18:39:06
 *********************************************/

nbVertex = 4; 
 
c = [
    [0.0, 0.1, 1.5, 0.6],
    [0.1, 0.0, 0.4, 1.3],
	[1.5, 0.4, 0.0, 0.7],
	[0.6, 1.3, 0.7, 0.0]
];
